c SAT Generator for power-law distributed variable frequencies
c -g u -v 20 -c 91 -k 3 -p 2.750000 -b 3.200000 -f /home/schmidt/Devel/ni-kop-sat/data/ensemble/ruf20-91/ruf20-91-379 -u 1 -U 1 -s 2277534141
p cnf 20 91
3 -19 20 0
-3 -4 17 0
-2 -4 7 0
8 10 16 0
2 -11 15 0
2 10 14 0
7 -11 -15 0
2 7 19 0
-7 9 -17 0
-6 -7 16 0
1 7 -16 0
-9 10 16 0
3 12 20 0
4 -8 -14 0
-13 15 17 0
3 12 -19 0
-5 -9 -16 0
-2 10 18 0
-5 11 -12 0
-6 8 -10 0
-3 9 14 0
1 5 -6 0
5 -12 18 0
6 -7 -18 0
-13 -16 17 0
-9 -10 -19 0
-4 -9 -20 0
-4 7 15 0
7 -18 -20 0
-6 10 14 0
-2 -18 -19 0
4 5 7 0
8 -16 -17 0
4 -15 16 0
3 8 -10 0
-16 17 -19 0
-9 -10 20 0
-1 14 17 0
-4 -7 -15 0
5 -8 -9 0
1 10 11 0
-2 -11 -15 0
8 11 16 0
3 12 14 0
6 13 -15 0
18 19 20 0
-3 10 -17 0
4 -13 -20 0
7 -8 -9 0
-10 -12 14 0
8 13 -19 0
1 -4 -20 0
12 -16 17 0
11 -13 16 0
4 -14 -20 0
-8 -15 -19 0
-7 -9 -13 0
-1 15 20 0
4 -6 9 0
9 -13 -19 0
-1 -5 -11 0
8 11 19 0
-8 -18 -19 0
6 9 17 0
-9 12 20 0
-10 11 16 0
-4 -6 15 0
-7 -18 19 0
-5 16 -20 0
-4 -14 -16 0
13 -16 -17 0
4 -8 -13 0
-5 17 -20 0
11 -16 20 0
-1 -7 17 0
-1 -5 15 0
-8 10 -20 0
-9 14 -16 0
-9 -12 -17 0
-3 -5 -6 0
-3 -14 15 0
4 5 11 0
4 -17 -20 0
-1 3 -11 0
5 -12 16 0
-6 15 -19 0
-13 -16 20 0
-8 13 17 0
9 11 14 0
-1 12 -16 0
2 6 -7 0
